; benchmark generated from python API
(set-info :status unknown)
(declare-datatypes ((RealState 0)) (((RMk1 (rval1 Real)) (RMk2 (rval2 Real)))))
 (assert
 (forall ((|v11:0| Real) )(forall ((|v10:1| Real) )(forall ((|v9:2| Real) )(forall ((|v8:3| Real) )(exists ((|v7:4_st| RealState) (val!3372 Real) )(exists ((|v6:5_st| RealState) (val!3373 Real) )(exists ((|v5:6_st| RealState) (val!3374 Real) )(exists ((|v4:7_st| RealState) (val!3375 Real) )(forall ((|v3:8| Real) )(forall ((|v2:9| Real) )(forall ((|v1:10| Real) )(forall ((|v0:11| Real) )(let ((?x1595 (- 19.0)))
 (let ((?x2222 (- 15.0)))
 (let ((?x2891 (* ?x2222 |v0:11|)))
 (let (($x2417 (<= (+ (+ (+ (rval2 |v6:5_st|) (* 6.0 |v0:11|)) (* 17.0 |v0:11|)) ?x2891) ?x1595)))
 (let ((?x634 (- 8.0)))
 (let ((?x664 (* ?x634 |v1:10|)))
 (let ((?x1600 (+ (+ (+ (* (- 12.0) |v2:9|) (* 8.0 |v11:0|)) (* 8.0 |v0:11|)) ?x664)))
 (let ((?x2064 (+ (+ (+ (* (- 16.0) |v1:10|) (* 4.0 |v0:11|)) (* (- 14.0) |v0:11|)) (* 19.0 |v0:11|))))
 (let (($x1796 (<= ?x2064 2.0)))
 (let ((?x1822 (- 11.0)))
 (let ((?x2974 (* 8.0 |v1:10|)))
 (let ((?x2735 (+ (+ (* 5.0 (rval2 |v4:7_st|)) (* (- 9.0) |v3:8|)) (* (- 12.0) (rval2 |v5:6_st|)))))
 (let ((?x439 (+ (+ (+ (* ?x1822 |v3:8|) (* (- 13.0) (rval2 |v5:6_st|))) (* 11.0 |v8:3|)) (* 6.0 (rval2 |v6:5_st|)))))
 (let ((?x3047 (+ (+ (+ (* 11.0 |v1:10|) (* (- 2.0) |v1:10|)) (* 19.0 (rval2 |v6:5_st|))) |v1:10|)))
 (let ((?x2196 (* 16.0 |v0:11|)))
 (let ((?x1508 (+ (+ (+ (* 2.0 (rval2 |v6:5_st|)) (* (- 1.0) (rval2 |v5:6_st|))) ?x2196) (* (- 5.0) |v9:2|))))
 (let (($x1224 (and (or (<= ?x1508 2.0) (<= ?x3047 12.0)) (or (<= ?x439 ?x1822) (<= (+ ?x2735 ?x2974) ?x1822)))))
 (let ((?x1633 (+ (+ (* 6.0 (rval2 |v4:7_st|)) (* (- 18.0) (rval2 |v6:5_st|))) (* 5.0 |v10:1|))))
 (let ((?x3023 (* 4.0 |v10:1|)))
 (let ((?x825 (+ (+ (+ (* 4.0 |v3:8|) (* 9.0 |v2:9|)) (* 4.0 (rval2 |v5:6_st|))) ?x3023)))
 (let ((?x840 (+ (+ (+ (* 19.0 |v1:10|) (* (- 14.0) |v2:9|)) (* 2.0 |v9:2|)) (* 0.0 (rval2 |v6:5_st|)))))
 (let ((?x3033 (- 9.0)))
 (let ((?x1988 (- 12.0)))
 (let ((?x2561 (* ?x1988 |v8:3|)))
 (let ((?x3209 (+ (+ (* 8.0 |v11:0|) (* (- 13.0) (rval2 |v4:7_st|))) (* 4.0 (rval2 |v4:7_st|)))))
 (let (($x2759 (and (and (<= (+ ?x3209 ?x2561) ?x3033) (<= ?x840 4.0)) (and (<= ?x825 ?x1595) (<= (+ ?x1633 (* (- 2.0) |v11:0|)) 13.0)))))
 (let (($x2303 (<= (+ (+ (+ (* 3.0 |v8:3|) (* ?x1822 |v10:1|)) (* 14.0 |v8:3|)) ?x2974) ?x1822)))
 (let ((?x1452 (* 11.0 |v8:3|)))
 (let (($x1406 (<= (+ (+ (+ (* ?x1988 |v9:2|) (* (- 2.0) |v1:10|)) (* ?x1595 |v3:8|)) ?x1452) 20.0)))
 (let ((?x954 (- 4.0)))
 (let ((?x2846 (* ?x954 |v1:10|)))
 (let ((?x2966 (- 5.0)))
 (let ((?x999 (* ?x2966 |v11:0|)))
 (let (($x2798 (<= (+ (+ (+ (* (- 3.0) (rval2 |v4:7_st|)) (* 18.0 |v2:9|)) ?x999) ?x2846) ?x954)))
 (let (($x1712 (or (and (or $x2798 (and $x1406 $x2303)) $x2759) (and $x1224 (and (and $x1796 (<= ?x1600 5.0)) $x2417)))))
 (let ((?x3088 (- 14.0)))
 (let ((?x822 (+ (+ (+ ?x999 (* ?x2966 (rval2 |v4:7_st|))) (* 0.0 |v3:8|)) (* 20.0 (rval2 |v7:4_st|)))))
 (let ((?x2697 (rval2 |v6:5_st|)))
 (let ((?x412 (* 11.0 ?x2697)))
 (let ((?x2205 (+ (+ (+ (* 7.0 (rval2 |v5:6_st|)) (* 6.0 |v2:9|)) ?x412) (* (- 17.0) |v8:3|))))
 (let ((?x1306 (* 14.0 ?x2697)))
 (let ((?x2180 (rval2 |v5:6_st|)))
 (let ((?x271 (* 9.0 ?x2180)))
 (let (($x1180 (<= (+ (+ (+ (* 3.0 |v0:11|) (* ?x1822 (rval2 |v7:4_st|))) ?x271) ?x1306) ?x1822)))
 (let ((?x3205 (+ (+ (+ (* 12.0 |v3:8|) (* (- 7.0) ?x2697)) (* 16.0 |v10:1|)) (* ?x954 |v8:3|))))
 (let (($x1845 (and (or (<= ?x3205 2.0) $x1180) (or (<= ?x2205 6.0) (<= ?x822 ?x3088)))))
 (let ((?x804 (* ?x2222 |v3:8|)))
 (let ((?x1790 (+ (+ (* (- 13.0) |v9:2|) (* (- 18.0) (rval2 |v7:4_st|))) (* (- 3.0) ?x2180))))
 (let ((?x1594 (* 9.0 ?x2697)))
 (let ((?x326 (+ (+ (+ (* (- 17.0) |v9:2|) (* 15.0 |v2:9|)) (* 19.0 (rval2 |v4:7_st|))) ?x1594)))
 (let ((?x1447 (- 3.0)))
 (let ((?x2516 (* 6.0 |v2:9|)))
 (let (($x2727 (<= (+ (+ (+ (* ?x1988 |v0:11|) (* 4.0 |v11:0|)) (* (- 17.0) |v3:8|)) ?x2516) ?x1447)))
 (let ((?x2011 (* 15.0 |v8:3|)))
 (let ((?x879 (* 6.0 |v0:11|)))
 (let ((?x2445 (+ (+ (* 8.0 |v0:11|) (* 5.0 |v3:8|)) ?x879)))
 (let (($x1013 (and (or (<= (+ ?x2445 ?x2011) 16.0) $x2727) (and (<= ?x326 9.0) (<= (+ ?x1790 ?x804) ?x1595)))))
 (let ((?x144 (- 18.0)))
 (let ((?x1000 (* ?x144 |v2:9|)))
 (let (($x1716 (<= (+ (+ (+ |v0:11| (* 9.0 (rval2 |v4:7_st|))) (* ?x144 ?x2697)) ?x1000) 8.0)))
 (let ((?x3191 (+ (+ (+ (* 12.0 (rval2 |v7:4_st|)) (* (- 1.0) |v0:11|)) (* 6.0 |v8:3|)) (* (- 17.0) |v11:0|))))
 (let ((?x270 (* 12.0 |v10:1|)))
 (let ((?x27 (+ (+ (* (- 2.0) ?x2697) (* 17.0 (rval2 |v4:7_st|))) (* 13.0 (rval2 |v4:7_st|)))))
 (let ((?x2173 (* ?x3033 |v2:9|)))
 (let ((?x571 (+ (+ (+ (* 20.0 |v1:10|) (* (- 2.0) |v0:11|)) (* 19.0 |v8:3|)) ?x2173)))
 (let (($x1357 (or (or (<= ?x571 ?x634) (<= (+ ?x27 ?x270) 7.0)) (and (<= ?x3191 ?x3033) $x1716))))
 (let ((?x2094 (* 2.0 |v1:10|)))
 (let (($x2996 (<= (+ (+ (+ (* ?x2966 |v8:3|) (* (- 10.0) |v10:1|)) (* 16.0 |v2:9|)) ?x2094) 6.0)))
 (let ((?x3125 (+ (+ (+ (* (- 2.0) |v2:9|) (* 16.0 |v1:10|)) (* (- 13.0) ?x2697)) (* 20.0 ?x2697))))
 (let ((?x1490 (- 1.0)))
 (let (($x801 (<= (+ (+ (+ (* ?x1822 |v11:0|) (* 2.0 |v0:11|)) (* 15.0 |v2:9|)) ?x2561) ?x1490)))
 (let (($x1752 (and (or (or $x801 (and (<= ?x3125 16.0) $x2996)) $x1357) (and $x1013 $x1845))))
 (let ((?x2813 (+ (+ (+ (* 15.0 |v10:1|) (* 5.0 ?x2697)) (* 18.0 |v2:9|)) (* ?x3088 (rval2 |v4:7_st|)))))
 (let (($x3027 (not (= |v4:7_st| (RMk1 val!3375)))))
 (let (($x820 (not (= |v5:6_st| (RMk1 val!3374)))))
 (let (($x1286 (not (= |v6:5_st| (RMk1 val!3373)))))
 (let (($x2483 (not (= |v7:4_st| (RMk1 val!3372)))))
 (and $x2483 $x1286 $x820 $x3027 (or (<= ?x2813 13.0) (and $x1752 $x1712)))))))))))))))))))))))))))))))))))))))))))))))))))))))))))))))))))))))))))))))))
 )
 )
 )
 )
 )
 )
 )
 )
 )
 )
 )
 )
(check-sat)
